NAME: tsp15_23
COMMENT: 15-tsp problem (Padberg/Rinaldi)
TYPE: TSP
DIMENSION: 15
EDGE_WEIGHT_TYPE : EUC_2D
NODE_COORD_SECTION
1.00 32.71 18.28
2.00 6.99 34.70
3.00 10.78 19.79
4.00 39.78 21.82
5.00 25.16 11.26
6.00 0.84 17.75
7.00 0.10 18.52
8.00 2.96 6.14
9.00 12.93 29.48
10.00 15.40 21.57
11.00 27.04 33.81
12.00 14.94 8.23
13.00 3.57 37.10
14.00 33.89 38.70
15.00 19.57 25.60
